100 
75 29 16 66 46 25 
45 23 76 12 5 79 2 87 57 30 38 96 70 77 60 
44 56 33 32 36 
31 63 59 27 67 85 88 92 94 99 22 97 24 55 80 
7 65 73 34 8 1 89 
62 98 11 28 61 42 84 53 19 49 3 20 37 68 
14 15 64 21 71 69 82 90 18 13 93 10 4 39 26 41 54 74 48 35 
52 72 47 83 95 9 51 78 81 40 6 86 17 50 58 43 91 
